2025 02 25 10 42 51-2025 02 26 00 00 00
2025 02 26 10 43 34-2025 02 27 00 00 00
2025 02 27 10 44 16-2025 02 28 00 00 00
2025 02 28 10 44 58-2025 03 01 00 00 00
2025 03 01 10 45 40-2025 03 02 00 00 00
2025 03 02 10 46 21-2025 03 03 00 00 00
2025 03 03 10 47 03-2025 03 04 00 00 00
2025 03 04 10 47 44-2025 03 05 00 00 00
2025 03 05 10 48 25-2025 03 06 00 00 00
2025 03 06 10 49 05-2025 03 07 00 00 00
2025 03 07 10 49 46-2025 03 08 00 00 00
2025 03 08 10 50 26-2025 03 09 00 00 00
2025 03 09 10 51 06-2025 03 10 00 00 00
2025 03 10 10 51 46-2025 03 11 00 00 00
2025 03 11 10 52 25-2025 03 12 00 00 00
2025 03 12 10 53 05-2025 03 13 00 00 00
2025 03 13 10 53 44-2025 03 14 00 00 00
2025 03 14 10 54 24-2025 03 15 00 00 00
2025 03 15 10 55 03-2025 03 16 00 00 00
2025 03 16 10 55 42-2025 03 17 00 00 00
2025 03 17 10 56 21-2025 03 18 00 00 00
2025 03 18 10 57 00-2025 03 19 00 00 00
2025 03 19 10 57 39-2025 03 20 00 00 00
2025 03 20 10 58 17-2025 03 21 00 00 00
2025 03 21 10 58 56-2025 03 22 00 00 00
2025 03 22 10 59 35-2025 03 23 00 00 00
2025 03 23 11 00 14-2025 03 24 00 00 00
2025 03 24 11 00 52-2025 03 25 00 00 00
2025 03 25 11 01 31-2025 03 26 00 00 00
2025 03 26 11 02 10-2025 03 27 00 00 00
2025 03 27 11 02 48-2025 03 28 00 00 00
2025 03 28 11 03 27-2025 03 29 00 00 00
2025 03 29 11 04 06-2025 03 30 00 00 00
2025 03 30 11 04 45-2025 03 31 00 00 00
2025 03 31 11 05 24-2025 04 01 00 00 00
2025 04 01 11 06 03-2025 04 02 00 00 00
2025 04 02 11 06 42-2025 04 03 00 00 00
2025 04 03 11 07 22-2025 04 04 00 00 00
2025 04 04 11 08 01-2025 04 05 00 00 00
2025 04 05 11 08 41-2025 04 06 00 00 00
2025 04 06 11 09 20-2025 04 07 00 00 00
2025 04 07 11 10 00-2025 04 08 00 00 00
2025 04 08 11 10 40-2025 04 09 00 00 00
2025 04 09 11 11 20-2025 04 10 00 00 00
2025 04 10 11 12 00-2025 04 11 00 00 00
2025 04 11 11 12 41-2025 04 12 00 00 00
2025 04 12 11 13 21-2025 04 13 00 00 00
2025 04 13 11 14 02-2025 04 14 00 00 00
2025 04 14 11 14 43-2025 04 15 00 00 00
2025 04 15 11 15 24-2025 04 16 00 00 00
2025 04 16 11 16 05-2025 04 17 00 00 00
2025 04 17 11 16 46-2025 04 18 00 00 00
2025 04 18 11 17 28-2025 04 19 00 00 00
2025 04 19 11 18 10-2025 04 20 00 00 00
2025 04 20 11 18 52-2025 04 21 00 00 00
2025 04 21 11 19 34-2025 04 22 00 00 00
2025 04 22 11 20 16-2025 04 23 00 00 00
2025 04 23 11 20 58-2025 04 24 00 00 00
2025 04 24 11 21 41-2025 04 25 00 00 00
2025 04 25 11 22 24-2025 04 26 00 00 00
2025 04 26 11 23 06-2025 04 27 00 00 00
2025 04 27 11 23 49-2025 04 28 00 00 00
2025 04 28 11 24 33-2025 04 29 00 00 00
2025 04 29 11 25 16-2025 04 30 00 00 00
2025 04 30 11 25 59-2025 05 01 00 00 00
2025 05 01 11 26 43-2025 05 02 00 00 00
2025 05 02 11 27 26-2025 05 03 00 00 00
2025 05 03 11 28 10-2025 05 04 00 00 00
2025 05 04 11 28 53-2025 05 05 00 00 00
2025 05 05 11 29 37-2025 05 06 00 00 00
2025 05 06 11 30 21-2025 05 07 00 00 00
2025 05 07 11 31 04-2025 05 08 00 00 00
2025 05 08 11 31 48-2025 05 09 00 00 00
2025 05 09 11 32 32-2025 05 10 00 00 00
2025 05 10 11 33 15-2025 05 11 00 00 00
2025 05 11 11 33 59-2025 05 12 00 00 00
2025 05 12 11 34 42-2025 05 13 00 00 00
2025 05 13 11 35 26-2025 05 14 00 00 00
2025 05 14 11 36 09-2025 05 15 00 00 00
2025 05 15 11 36 52-2025 05 16 00 00 00
2025 05 16 11 37 34-2025 05 17 00 00 00
2025 05 17 11 38 17-2025 05 18 00 00 00
2025 05 18 11 38 59-2025 05 19 00 00 00
2025 05 19 11 39 41-2025 05 20 00 00 00
2025 05 20 11 40 23-2025 05 21 00 00 00
2025 05 21 11 41 04-2025 05 22 00 00 00
2025 05 22 11 41 45-2025 05 23 00 00 00
2025 05 23 11 42 26-2025 05 24 00 00 00
2025 05 24 11 43 06-2025 05 25 00 00 00
2025 05 25 11 43 45-2025 05 26 00 00 00
2025 05 26 11 44 24-2025 05 27 00 00 00
2025 05 27 11 45 03-2025 05 28 00 00 00
2025 05 28 11 45 40-2025 05 29 00 00 00
2025 05 29 11 46 18-2025 05 30 00 00 00
2025 05 30 11 46 54-2025 05 31 00 00 00
2025 05 31 11 47 30-2025 06 01 00 00 00
2025 06 01 11 48 05-2025 06 02 00 00 00
2025 06 02 11 48 40-2025 06 03 00 00 00
2025 06 03 11 49 13-2025 06 04 00 00 00
2025 06 04 11 49 46-2025 06 05 00 00 00
2025 06 05 11 50 18-2025 06 06 00 00 00
2025 06 06 11 50 49-2025 06 07 00 00 00
2025 06 07 11 51 19-2025 06 08 00 00 00
2025 06 08 11 51 48-2025 06 09 00 00 00
2025 06 09 11 52 16-2025 06 10 00 00 00
2025 06 10 11 52 42-2025 06 11 00 00 00
2025 06 11 11 53 08-2025 06 12 00 00 00
2025 06 12 11 53 33-2025 06 13 00 00 00
2025 06 13 11 53 56-2025 06 14 00 00 00
2025 06 14 11 54 19-2025 06 15 00 00 00
2025 06 15 11 54 40-2025 06 16 00 00 00
2025 06 16 11 55 00-2025 06 17 00 00 00
2025 06 17 11 55 18-2025 06 18 00 00 00
2025 06 18 11 55 36-2025 06 19 00 00 00
2025 06 19 11 55 52-2025 06 20 00 00 00
2025 06 20 11 56 06-2025 06 21 00 00 00
2025 06 21 11 56 19-2025 06 22 00 00 00
2025 06 22 11 56 31-2025 06 23 00 00 00
2025 06 23 11 56 42-2025 06 24 00 00 00
2025 06 24 11 56 50-2025 06 25 00 00 00
2025 06 25 11 56 58-2025 06 26 00 00 00
2025 06 26 11 57 04-2025 06 27 00 00 00
2025 06 27 11 57 08-2025 06 28 00 00 00
2025 06 28 11 57 11-2025 06 29 00 00 00
2025 06 29 11 57 13-2025 06 30 00 00 00
2025 06 30 11 57 13-2025 07 01 00 00 00
2025 07 01 11 57 11-2025 07 02 00 00 00
2025 07 02 11 57 08-2025 07 03 00 00 00
2025 07 03 11 57 03-2025 07 04 00 00 00
2025 07 04 11 56 57-2025 07 05 00 00 00
2025 07 05 11 56 49-2025 07 06 00 00 00
2025 07 06 11 56 39-2025 07 07 00 00 00
2025 07 07 11 56 28-2025 07 08 00 00 00
2025 07 08 11 56 15-2025 07 09 00 00 00
2025 07 09 11 56 01-2025 07 10 00 00 00
2025 07 10 11 55 45-2025 07 11 00 00 00
2025 07 11 11 55 27-2025 07 12 00 00 00
2025 07 12 11 55 08-2025 07 13 00 00 00
2025 07 13 11 54 48-2025 07 14 00 00 00
2025 07 14 11 54 25-2025 07 15 00 00 00
2025 07 15 11 54 02-2025 07 16 00 00 00
2025 07 16 11 53 36-2025 07 17 00 00 00
2025 07 17 11 53 10-2025 07 18 00 00 00
2025 07 18 11 52 41-2025 07 19 00 00 00
2025 07 19 11 52 11-2025 07 20 00 00 00
2025 07 20 11 51 40-2025 07 21 00 00 00
2025 07 21 11 51 07-2025 07 22 00 00 00
2025 07 22 11 50 33-2025 07 23 00 00 00
2025 07 23 11 49 57-2025 07 24 00 00 00
2025 07 24 11 49 20-2025 07 25 00 00 00
2025 07 25 11 48 41-2025 07 26 00 00 00
2025 07 26 11 48 01-2025 07 27 00 00 00
2025 07 27 11 47 19-2025 07 28 00 00 00
2025 07 28 11 46 37-2025 07 29 00 00 00
2025 07 29 11 45 53-2025 07 30 00 00 00
2025 07 30 11 45 07-2025 07 31 00 00 00
2025 07 31 11 44 20-2025 08 01 00 00 00
2025 08 01 11 43 32-2025 08 02 00 00 00
2025 08 02 11 42 43-2025 08 03 00 00 00
2025 08 03 11 41 53-2025 08 04 00 00 00
2025 08 04 11 41 01-2025 08 05 00 00 00
2025 08 05 11 40 08-2025 08 06 00 00 00
2025 08 06 11 39 14-2025 08 07 00 00 00
2025 08 07 11 38 19-2025 08 08 00 00 00
2025 08 08 11 37 23-2025 08 09 00 00 00
2025 08 09 11 36 26-2025 08 10 00 00 00
2025 08 10 11 35 27-2025 08 11 00 00 00
2025 08 11 11 34 28-2025 08 12 00 00 00
2025 08 12 11 33 28-2025 08 13 00 00 00
2025 08 13 11 32 26-2025 08 14 00 00 00
2025 08 14 11 31 24-2025 08 15 00 00 00
2025 08 15 11 30 21-2025 08 16 00 00 00
2025 08 16 11 29 17-2025 08 17 00 00 00
2025 08 17 11 28 12-2025 08 18 00 00 00
2025 08 18 11 27 07-2025 08 19 00 00 00
2025 08 19 11 26 00-2025 08 20 00 00 00
2025 08 20 11 24 53-2025 08 21 00 00 00
2025 08 21 11 23 45-2025 08 22 00 00 00
2025 08 22 11 22 36-2025 08 23 00 00 00
2025 08 23 11 21 27-2025 08 24 00 00 00
2025 08 24 11 20 17-2025 08 25 00 00 00
2025 08 25 11 19 06-2025 08 26 00 00 00
2025 08 26 11 17 55-2025 08 27 00 00 00
2025 08 27 11 16 43-2025 08 28 00 00 00
2025 08 28 11 15 31-2025 08 29 00 00 00
2025 08 29 11 14 18-2025 08 30 00 00 00
2025 08 30 11 13 05-2025 08 31 00 00 00
2025 08 31 11 11 51-2025 09 01 00 00 00
2025 09 01 11 10 37-2025 09 02 00 00 00
2025 09 02 11 09 22-2025 09 03 00 00 00
2025 09 03 11 08 07-2025 09 04 00 00 00
2025 09 04 11 06 52-2025 09 05 00 00 00
2025 09 05 11 05 36-2025 09 06 00 00 00
2025 09 06 11 04 20-2025 09 07 00 00 00
2025 09 07 11 03 04-2025 09 08 00 00 00
2025 09 08 11 01 48-2025 09 09 00 00 00
2025 09 09 11 00 31-2025 09 10 00 00 00
2025 09 10 10 59 14-2025 09 11 00 00 00
2025 09 11 10 57 57-2025 09 12 00 00 00
2025 09 12 10 56 40-2025 09 13 00 00 00
2025 09 13 10 55 23-2025 09 14 00 00 00
2025 09 14 10 54 05-2025 09 15 00 00 00
2025 09 15 10 52 48-2025 09 16 00 00 00
2025 09 16 10 51 31-2025 09 17 00 00 00
2025 09 17 10 50 13-2025 09 18 00 00 00
2025 09 18 10 48 56-2025 09 19 00 00 00
2025 09 19 10 47 39-2025 09 20 00 00 00
2025 09 20 10 46 22-2025 09 21 00 00 00
2025 09 21 10 45 05-2025 09 22 00 00 00
2025 09 22 10 43 48-2025 09 23 00 00 00
2025 09 23 10 42 31-2025 09 24 00 00 00
2025 09 24 10 41 15-2025 09 25 00 00 00
2025 09 25 10 39 59-2025 09 26 00 00 00
2025 09 26 10 38 43-2025 09 27 00 00 00
2025 09 27 10 37 27-2025 09 28 00 00 00
2025 09 28 10 36 11-2025 09 29 00 00 00
2025 09 29 10 34 56-2025 09 30 00 00 00
2025 09 30 10 33 42-2025 10 01 00 00 00
2025 10 01 10 32 27-2025 10 02 00 00 00
2025 10 02 10 31 14-2025 10 03 00 00 00
2025 10 03 10 30 00-2025 10 04 00 00 00
2025 10 04 10 28 47-2025 10 05 00 00 00
2025 10 05 10 27 35-2025 10 06 00 00 00
2025 10 06 10 26 23-2025 10 07 00 00 00
2025 10 07 10 25 12-2025 10 08 00 00 00
2025 10 08 10 24 01-2025 10 09 00 00 00
2025 10 09 10 22 51-2025 10 10 00 00 00
2025 10 10 10 21 42-2025 10 11 00 00 00
2025 10 11 10 20 33-2025 10 12 00 00 00
2025 10 12 10 19 25-2025 10 13 00 00 00
2025 10 13 10 18 18-2025 10 14 00 00 00
2025 10 14 10 17 11-2025 10 15 00 00 00
2025 10 15 10 16 05-2025 10 16 00 00 00
2025 10 16 10 15 01-2025 10 17 00 00 00
2025 10 17 10 13 57-2025 10 18 00 00 00
2025 10 18 10 12 53-2025 10 19 00 00 00
2025 10 19 10 11 51-2025 10 20 00 00 00
2025 10 20 10 10 50-2025 10 21 00 00 00
2025 10 21 10 09 50-2025 10 22 00 00 00
2025 10 22 10 08 50-2025 10 23 00 00 00
2025 10 23 10 07 52-2025 10 24 00 00 00
2025 10 24 10 06 55-2025 10 25 00 00 00
2025 10 25 10 05 59-2025 10 26 00 00 00
2025 10 26 10 05 04-2025 10 27 00 00 00
2025 10 27 10 04 10-2025 10 28 00 00 00
2025 10 28 10 03 17-2025 10 29 00 00 00
2025 10 29 10 02 26-2025 10 30 00 00 00
2025 10 30 10 01 35-2025 10 31 00 00 00
2025 10 31 10 00 46-2025 11 01 00 00 00
2025 11 01 09 59 59-2025 11 02 00 00 00
2025 11 02 09 59 12-2025 11 03 00 00 00
2025 11 03 09 58 27-2025 11 04 00 00 00
2025 11 04 09 57 43-2025 11 05 00 00 00
2025 11 05 09 57 01-2025 11 06 00 00 00
2025 11 06 09 56 19-2025 11 07 00 00 00
2025 11 07 09 55 40-2025 11 08 00 00 00
2025 11 08 09 55 02-2025 11 09 00 00 00
2025 11 09 09 54 25-2025 11 10 00 00 00
2025 11 10 09 53 49-2025 11 11 00 00 00
2025 11 11 09 53 16-2025 11 12 00 00 00
2025 11 12 09 52 43-2025 11 13 00 00 00
2025 11 13 09 52 12-2025 11 14 00 00 00
2025 11 14 09 51 43-2025 11 15 00 00 00
2025 11 15 09 51 16-2025 11 16 00 00 00
2025 11 16 09 50 49-2025 11 17 00 00 00
2025 11 17 09 50 25-2025 11 18 00 00 00
2025 11 18 09 50 02-2025 11 19 00 00 00
2025 11 19 09 49 41-2025 11 20 00 00 00
2025 11 20 09 49 21-2025 11 21 00 00 00
2025 11 21 09 49 03-2025 11 22 00 00 00
2025 11 22 09 48 46-2025 11 23 00 00 00
2025 11 23 09 48 32-2025 11 24 00 00 00
2025 11 24 09 48 19-2025 11 25 00 00 00
2025 11 25 09 48 07-2025 11 26 00 00 00
2025 11 26 09 47 57-2025 11 27 00 00 00
2025 11 27 09 47 49-2025 11 28 00 00 00
2025 11 28 09 47 43-2025 11 29 00 00 00
2025 11 29 09 47 38-2025 11 30 00 00 00
2025 11 30 09 47 35-2025 12 01 00 00 00
2025 12 01 09 47 33-2025 12 02 00 00 00
2025 12 02 09 47 33-2025 12 03 00 00 00
2025 12 03 09 47 35-2025 12 04 00 00 00
2025 12 04 09 47 39-2025 12 05 00 00 00
2025 12 05 09 47 44-2025 12 06 00 00 00
2025 12 06 09 47 51-2025 12 07 00 00 00
2025 12 07 09 47 59-2025 12 08 00 00 00
2025 12 08 09 48 09-2025 12 09 00 00 00
2025 12 09 09 48 20-2025 12 10 00 00 00
2025 12 10 09 48 33-2025 12 11 00 00 00
2025 12 11 09 48 48-2025 12 12 00 00 00
2025 12 12 09 49 04-2025 12 13 00 00 00
2025 12 13 09 49 22-2025 12 14 00 00 00
2025 12 14 09 49 41-2025 12 15 00 00 00
2025 12 15 09 50 02-2025 12 16 00 00 00
2025 12 16 09 50 24-2025 12 17 00 00 00
2025 12 17 09 50 47-2025 12 18 00 00 00
2025 12 18 09 51 12-2025 12 19 00 00 00
2025 12 19 09 51 38-2025 12 20 00 00 00
2025 12 20 09 52 06-2025 12 21 00 00 00
2025 12 21 09 52 35-2025 12 22 00 00 00
2025 12 22 09 53 05-2025 12 23 00 00 00
2025 12 23 09 53 36-2025 12 24 00 00 00
2025 12 24 09 54 09-2025 12 25 00 00 00
2025 12 25 09 54 42-2025 12 26 00 00 00
2025 12 26 09 55 17-2025 12 27 00 00 00
2025 12 27 09 55 53-2025 12 28 00 00 00
2025 12 28 09 56 30-2025 12 29 00 00 00
2025 12 29 09 57 08-2025 12 30 00 00 00
2025 12 30 09 57 47-2025 12 31 00 00 00
2025 12 31 09 58 27-2026 01 01 00 00 00
2026 01 01 09 59 08-2026 01 02 00 00 00
2026 01 02 09 59 50-2026 01 03 00 00 00
2026 01 03 10 00 32-2026 01 04 00 00 00
2026 01 04 10 01 15-2026 01 05 00 00 00
2026 01 05 10 01 59-2026 01 06 00 00 00
2026 01 06 10 02 44-2026 01 07 00 00 00
2026 01 07 10 03 29-2026 01 08 00 00 00
2026 01 08 10 04 15-2026 01 09 00 00 00
2026 01 09 10 05 02-2026 01 10 00 00 00
2026 01 10 10 05 49-2026 01 11 00 00 00
2026 01 11 10 06 36-2026 01 12 00 00 00
2026 01 12 10 07 24-2026 01 13 00 00 00
2026 01 13 10 08 13-2026 01 14 00 00 00
2026 01 14 10 09 02-2026 01 15 00 00 00
2026 01 15 10 09 51-2026 01 16 00 00 00
2026 01 16 10 10 40-2026 01 17 00 00 00
2026 01 17 10 11 30-2026 01 18 00 00 00
2026 01 18 10 12 20-2026 01 19 00 00 00
2026 01 19 10 13 10-2026 01 20 00 00 00
2026 01 20 10 14 00-2026 01 21 00 00 00
2026 01 21 10 14 50-2026 01 22 00 00 00
2026 01 22 10 15 41-2026 01 23 00 00 00
2026 01 23 10 16 31-2026 01 24 00 00 00
2026 01 24 10 17 22-2026 01 25 00 00 00
2026 01 25 10 18 12-2026 01 26 00 00 00
2026 01 26 10 19 03-2026 01 27 00 00 00
2026 01 27 10 19 53-2026 01 28 00 00 00
2026 01 28 10 20 44-2026 01 29 00 00 00
2026 01 29 10 21 34-2026 01 30 00 00 00
2026 01 30 10 22 24-2026 01 31 00 00 00
2026 01 31 10 23 14-2026 02 01 00 00 00
2026 02 01 10 24 04-2026 02 02 00 00 00
2026 02 02 10 24 54-2026 02 03 00 00 00
2026 02 03 10 25 43-2026 02 04 00 00 00
2026 02 04 10 26 33-2026 02 05 00 00 00
2026 02 05 10 27 22-2026 02 06 00 00 00
2026 02 06 10 28 11-2026 02 07 00 00 00
2026 02 07 10 28 59-2026 02 08 00 00 00
2026 02 08 10 29 47-2026 02 09 00 00 00
2026 02 09 10 30 35-2026 02 10 00 00 00
2026 02 10 10 31 23-2026 02 11 00 00 00
2026 02 11 10 32 10-2026 02 12 00 00 00
2026 02 12 10 32 57-2026 02 13 00 00 00
2026 02 13 10 33 44-2026 02 14 00 00 00
2026 02 14 10 34 31-2026 02 15 00 00 00
2026 02 15 10 35 17-2026 02 16 00 00 00
2026 02 16 10 36 03-2026 02 17 00 00 00
2026 02 17 10 36 48-2026 02 18 00 00 00
2026 02 18 10 37 33-2026 02 19 00 00 00
2026 02 19 10 38 18-2026 02 20 00 00 00
2026 02 20 10 39 03-2026 02 21 00 00 00
2026 02 21 10 39 47-2026 02 22 00 00 00
2026 02 22 10 40 31-2026 02 23 00 00 00
2026 02 23 10 41 14-2026 02 24 00 00 00
2026 02 24 10 41 58-2026 02 25 00 00 00
2026 02 25 10 42 41-2026 02 26 00 00 00
2026 02 26 10 43 23-2026 02 27 00 00 00
2026 02 27 10 44 06-2026 02 28 00 00 00
2026 02 28 10 44 48-2026 03 01 00 00 00
2026 03 01 10 45 30-2026 03 02 00 00 00
2026 03 02 10 46 11-2026 03 03 00 00 00
